10J3M/DAT/10J3MUTA-6.dat
10 3
44.7353 2001.2471
18.4144 339.0901
30.0571 903.4293
27.9313 780.1575
39.1774 1534.8687
24.2245 586.8264
0.0046 0.0
13.8794 192.6377
41.3818 1712.4534
29.2176 853.6681
2226.0946