10J3M/SOL/10J3MUTA-6.sol
solution status: optimal solution found
objective value:                     64.3102408901005
x#1#1                                               1 	(obj:0)
x#2#1                                0.37312973550754 	(obj:0)
x#2#2                                0.62687026449246 	(obj:0)
x#3#2                                               1 	(obj:0)
x#4#3                                               1 	(obj:0)
x#5#2                               0.677124171300252 	(obj:0)
x#5#3                               0.322875828699748 	(obj:0)
x#6#3                                               1 	(obj:0)
x#7#1                                               1 	(obj:0)
x#8#3                              0.0749653965795799 	(obj:0)
x#9#1                                               1 	(obj:0)
x#10#1                              0.132765688165236 	(obj:0)
x#10#2                               0.78617464413341 	(obj:0)
x#10#3                             0.0810596677013536 	(obj:0)
z                                    64.3102408901005 	(obj:1)
